n = 39;
lu = [|-1364, -350
      |-932, 1330
      |-6, 373
      |1230, 1339
      |-1127, 335
      |519, 931
      |-1443, 973
      |250, 584
      |4, 840
      |719, 1036
      |92, 256
      |-1285, -800
      |-1082, -1011
      |-893, 18
      |-1129, -864
      |510, 577
      |-994, 63
      |554, 925
      |-408, 834
      |-777, 22
      |-1321, -1261
      |-1271, 851
      |-1270, -757
      |-843, -308
      |-1206, -394
      |618, 1032
      |-1099, 872
      |1140, 1157
      |-1271, 1261
      |-1136, 1029
      |352, 1129
      |-165, 1442
      |-169, 645
      |1199, 1350
      |-838, 276
      |-1193, -1004
      |-1316, -213
      |-423, 901
      |-14, 1462|];
